% Auto-generated by scripts/generate_dzn.py
% problem_type   = regex
% instance       = regex_33
% source_json    = instances_json/1_medium_blowup/regex_33.json
% blowup         = 4.636363636363637
% representation = DFA

mode = 0;

var_count = 21;
n_constraints = 2;
Q = 89;
S = 3;
q0 = [1, 1];
F = [{56, 57, 58, 59, 60, 61, 62, 63, 64, 65, 66, 67, 68, 69, 70, 71, 72, 73, 74, 75, 76, 77, 78, 79, 80, 81, 82, 83, 84, 85, 86, 87, 88, 89}, {12}];
weights = [10, 9, 3, 1, 7, 10, 5, 2, 4, 2, 3, 10, 5, 3, 6, 4, 2, 1, 9, 2, 3];
d_dfa = array3d(1..2, 1..89, 1..3, [
  % k = 1
    1, 1, 2,
    3, 1, 2,
    4, 4, 5,
    6, 6, 7,
    8, 6, 7,
    9, 9, 10,
    11, 9, 10,
    12, 12, 13,
    14, 14, 15,
    16, 14, 15,
    17, 17, 18,
    19, 19, 20,
    21, 19, 20,
    22, 22, 23,
    24, 22, 23,
    25, 25, 26,
    27, 27, 28,
    29, 27, 28,
    30, 30, 31,
    32, 30, 31,
    33, 33, 34,
    35, 35, 36,
    37, 35, 36,
    38, 38, 39,
    40, 40, 41,
    42, 40, 41,
    43, 43, 44,
    45, 43, 44,
    46, 46, 47,
    48, 48, 49,
    50, 48, 49,
    51, 51, 52,
    53, 53, 54,
    55, 53, 54,
    56, 56, 57,
    58, 56, 57,
    59, 59, 60,
    61, 61, 62,
    63, 61, 62,
    64, 64, 65,
    66, 64, 65,
    67, 67, 68,
    69, 69, 70,
    71, 69, 70,
    72, 72, 73,
    74, 74, 75,
    76, 74, 75,
    77, 77, 78,
    79, 77, 78,
    80, 80, 81,
    82, 82, 83,
    84, 82, 83,
    85, 85, 86,
    87, 85, 86,
    88, 88, 89,
    1, 1, 2,
    3, 1, 2,
    4, 4, 5,
    6, 6, 7,
    8, 6, 7,
    9, 9, 10,
    11, 9, 10,
    12, 12, 13,
    14, 14, 15,
    16, 14, 15,
    17, 17, 18,
    19, 19, 20,
    21, 19, 20,
    22, 22, 23,
    24, 22, 23,
    25, 25, 26,
    27, 27, 28,
    29, 27, 28,
    30, 30, 31,
    32, 30, 31,
    33, 33, 34,
    35, 35, 36,
    37, 35, 36,
    38, 38, 39,
    40, 40, 41,
    42, 40, 41,
    43, 43, 44,
    45, 43, 44,
    46, 46, 47,
    48, 48, 49,
    50, 48, 49,
    51, 51, 52,
    53, 53, 54,
    55, 53, 54,

  % k = 2
    2, 1, 1,
    3, 2, 2,
    4, 3, 3,
    5, 4, 4,
    6, 5, 5,
    7, 6, 6,
    8, 7, 7,
    9, 8, 8,
    10, 9, 9,
    11, 10, 10,
    12, 11, 11,
    13, 12, 12,
    13, 13, 13,
    0, 0, 0,
    0, 0, 0,
    0, 0, 0,
    0, 0, 0,
    0, 0, 0,
    0, 0, 0,
    0, 0, 0,
    0, 0, 0,
    0, 0, 0,
    0, 0, 0,
    0, 0, 0,
    0, 0, 0,
    0, 0, 0,
    0, 0, 0,
    0, 0, 0,
    0, 0, 0,
    0, 0, 0,
    0, 0, 0,
    0, 0, 0,
    0, 0, 0,
    0, 0, 0,
    0, 0, 0,
    0, 0, 0,
    0, 0, 0,
    0, 0, 0,
    0, 0, 0,
    0, 0, 0,
    0, 0, 0,
    0, 0, 0,
    0, 0, 0,
    0, 0, 0,
    0, 0, 0,
    0, 0, 0,
    0, 0, 0,
    0, 0, 0,
    0, 0, 0,
    0, 0, 0,
    0, 0, 0,
    0, 0, 0,
    0, 0, 0,
    0, 0, 0,
    0, 0, 0,
    0, 0, 0,
    0, 0, 0,
    0, 0, 0,
    0, 0, 0,
    0, 0, 0,
    0, 0, 0,
    0, 0, 0,
    0, 0, 0,
    0, 0, 0,
    0, 0, 0,
    0, 0, 0,
    0, 0, 0,
    0, 0, 0,
    0, 0, 0,
    0, 0, 0,
    0, 0, 0,
    0, 0, 0,
    0, 0, 0,
    0, 0, 0,
    0, 0, 0,
    0, 0, 0,
    0, 0, 0,
    0, 0, 0,
    0, 0, 0,
    0, 0, 0,
    0, 0, 0,
    0, 0, 0,
    0, 0, 0,
    0, 0, 0,
    0, 0, 0,
    0, 0, 0,
    0, 0, 0,
    0, 0, 0,
    0, 0, 0
]);
d_nfa = array3d(1..2, 1..89, 1..3, [
  % k = 1
    {}, {}, {},
    {}, {}, {},
    {}, {}, {},
    {}, {}, {},
    {}, {}, {},
    {}, {}, {},
    {}, {}, {},
    {}, {}, {},
    {}, {}, {},
    {}, {}, {},
    {}, {}, {},
    {}, {}, {},
    {}, {}, {},
    {}, {}, {},
    {}, {}, {},
    {}, {}, {},
    {}, {}, {},
    {}, {}, {},
    {}, {}, {},
    {}, {}, {},
    {}, {}, {},
    {}, {}, {},
    {}, {}, {},
    {}, {}, {},
    {}, {}, {},
    {}, {}, {},
    {}, {}, {},
    {}, {}, {},
    {}, {}, {},
    {}, {}, {},
    {}, {}, {},
    {}, {}, {},
    {}, {}, {},
    {}, {}, {},
    {}, {}, {},
    {}, {}, {},
    {}, {}, {},
    {}, {}, {},
    {}, {}, {},
    {}, {}, {},
    {}, {}, {},
    {}, {}, {},
    {}, {}, {},
    {}, {}, {},
    {}, {}, {},
    {}, {}, {},
    {}, {}, {},
    {}, {}, {},
    {}, {}, {},
    {}, {}, {},
    {}, {}, {},
    {}, {}, {},
    {}, {}, {},
    {}, {}, {},
    {}, {}, {},
    {}, {}, {},
    {}, {}, {},
    {}, {}, {},
    {}, {}, {},
    {}, {}, {},
    {}, {}, {},
    {}, {}, {},
    {}, {}, {},
    {}, {}, {},
    {}, {}, {},
    {}, {}, {},
    {}, {}, {},
    {}, {}, {},
    {}, {}, {},
    {}, {}, {},
    {}, {}, {},
    {}, {}, {},
    {}, {}, {},
    {}, {}, {},
    {}, {}, {},
    {}, {}, {},
    {}, {}, {},
    {}, {}, {},
    {}, {}, {},
    {}, {}, {},
    {}, {}, {},
    {}, {}, {},
    {}, {}, {},
    {}, {}, {},
    {}, {}, {},
    {}, {}, {},
    {}, {}, {},
    {}, {}, {},
    {}, {}, {},

  % k = 2
    {}, {}, {},
    {}, {}, {},
    {}, {}, {},
    {}, {}, {},
    {}, {}, {},
    {}, {}, {},
    {}, {}, {},
    {}, {}, {},
    {}, {}, {},
    {}, {}, {},
    {}, {}, {},
    {}, {}, {},
    {}, {}, {},
    {}, {}, {},
    {}, {}, {},
    {}, {}, {},
    {}, {}, {},
    {}, {}, {},
    {}, {}, {},
    {}, {}, {},
    {}, {}, {},
    {}, {}, {},
    {}, {}, {},
    {}, {}, {},
    {}, {}, {},
    {}, {}, {},
    {}, {}, {},
    {}, {}, {},
    {}, {}, {},
    {}, {}, {},
    {}, {}, {},
    {}, {}, {},
    {}, {}, {},
    {}, {}, {},
    {}, {}, {},
    {}, {}, {},
    {}, {}, {},
    {}, {}, {},
    {}, {}, {},
    {}, {}, {},
    {}, {}, {},
    {}, {}, {},
    {}, {}, {},
    {}, {}, {},
    {}, {}, {},
    {}, {}, {},
    {}, {}, {},
    {}, {}, {},
    {}, {}, {},
    {}, {}, {},
    {}, {}, {},
    {}, {}, {},
    {}, {}, {},
    {}, {}, {},
    {}, {}, {},
    {}, {}, {},
    {}, {}, {},
    {}, {}, {},
    {}, {}, {},
    {}, {}, {},
    {}, {}, {},
    {}, {}, {},
    {}, {}, {},
    {}, {}, {},
    {}, {}, {},
    {}, {}, {},
    {}, {}, {},
    {}, {}, {},
    {}, {}, {},
    {}, {}, {},
    {}, {}, {},
    {}, {}, {},
    {}, {}, {},
    {}, {}, {},
    {}, {}, {},
    {}, {}, {},
    {}, {}, {},
    {}, {}, {},
    {}, {}, {},
    {}, {}, {},
    {}, {}, {},
    {}, {}, {},
    {}, {}, {},
    {}, {}, {},
    {}, {}, {},
    {}, {}, {},
    {}, {}, {},
    {}, {}, {},
    {}, {}, {}
]);
